objective value:                      1.6061076452416
x(0,2,1)                                            1 	(obj:0)
x(1,9,0)                                            1 	(obj:0)
x(2,3,1)                                            1 	(obj:0)
x(3,10,1)                                           1 	(obj:0)
x(4,1,0)                                            1 	(obj:0)
x(9,14,0)                                           1 	(obj:0)
x(10,0,1)                                           1 	(obj:0)
x(14,4,0)                                           1 	(obj:0)
xc(0,10)                                            1 	(obj:0)
xc(1,2)                                             1 	(obj:0)
xc(2,1)                                             1 	(obj:0)
xc(3,14)                                            1 	(obj:0)
u(1,0)                              0.270470565424803 	(obj:0)
u(1,1)                                1.6061076452416 	(obj:0)
u(2,1)                              0.400732497032999 	(obj:0)
u(3,1)                              0.811504052754501 	(obj:0)
u(8,1)                                1.6061076452416 	(obj:0)
u(9,0)                              0.842721634732302 	(obj:0)
u(10,0)                               1.6061076452416 	(obj:0)
u(10,1)                               1.6061076452416 	(obj:0)
u(11,0)                               1.6061076452416 	(obj:0)
u(11,1)                               1.6061076452416 	(obj:0)
u(12,0)                               1.6061076452416 	(obj:0)
u(12,1)                               1.6061076452416 	(obj:0)
u(13,0)                               1.6061076452416 	(obj:0)
u(13,1)                               1.6061076452416 	(obj:0)
u(14,0)                               1.6061076452416 	(obj:0)
u(14,1)                               1.6061076452416 	(obj:0)
u(15,0)                               1.6061076452416 	(obj:0)
u(15,1)                               1.6061076452416 	(obj:0)
u(16,0)                               1.6061076452416 	(obj:0)
u(16,1)                               1.6061076452416 	(obj:0)
u(17,0)                               1.6061076452416 	(obj:0)
u(17,1)                               1.6061076452416 	(obj:0)
u(18,0)                               1.6061076452416 	(obj:0)
u(18,1)                               1.6061076452416 	(obj:0)
u(19,0)                               1.6061076452416 	(obj:0)
u(19,1)                               1.6061076452416 	(obj:0)
f(0,2,0)                                            1 	(obj:0)
f(0,10,2)                                           1 	(obj:0)
f(0,10,4)                                           1 	(obj:0)
f(1,2,0)                                            1 	(obj:0)
f(1,2,3)                                            1 	(obj:0)
f(1,9,0)                                            1 	(obj:0)
f(1,9,1)                                            1 	(obj:0)
f(1,9,2)                                            1 	(obj:0)
f(1,9,3)                                            1 	(obj:0)
f(1,9,4)                                            1 	(obj:0)
f(2,1,0)                                            1 	(obj:0)
f(2,1,2)                                            1 	(obj:0)
f(2,1,3)                                            1 	(obj:0)
f(2,3,0)                                            1 	(obj:0)
f(3,14,0)                                           1 	(obj:0)
f(3,14,3)                                           1 	(obj:0)
f(4,1,0)                                            1 	(obj:0)
f(4,1,3)                                            1 	(obj:0)
f(4,1,4)                                            1 	(obj:0)
f(10,0,2)                                           1 	(obj:0)
f(10,0,4)                                           1 	(obj:0)
f(14,4,0)                                           1 	(obj:0)
f(14,4,3)                                           1 	(obj:0)
z_r(0,)                               1.6061076452416 	(obj:0)
z_r(1,)                               1.6061076452416 	(obj:0)
z                                     1.6061076452416 	(obj:1)
